44
400
280	1
274	2
269	1
265	1
263	1
259	1
255	1
250	1
249	1
241	1
238	1
237	1
231	1
225	2
222	1
221	1
220	1
214	1
207	1
198	1
191	1
189	1
188	1
184	1
182	1
179	1
174	3
172	1
167	1
165	1
158	1
156	1
154	1
142	1
138	1
137	2
135	1
131	1
130	2
118	1
110	1
102	1
100	1
88	1
